NAME: random-6-27367
TYPE: TSP
COMMENT: size=6 seed=27367
DIMENSION: 14
EDGE_WEIGHT_TYPE: EUC_2D
NODE_COORD_SECTION
+0 169 830
-0 169 830
+1 50 0
-1 959 260
+2 11 590
-2 215 97
+3 137 352
-3 668 689
+4 560 673
-4 956 241
+5 226 305
-5 857 58
+6 941 671
-6 481 961
PRECEDENCE_SECTION
+0 -0
+1 -1
+2 -2
+3 -3
+4 -4
+5 -5
+6 -6
EOF
